networks/zoo_124_3782/zoo_124_3782.txt
Number of groups: 63
Flow 32: {1 56} {56 33} {33 95} 
Flow 39: {28 40} {40 102} 
Flow 81: {43 21} {21 83} 
Flow 121: {2 56} {56 61} {61 123} 
Flow 125: {3 4} {4 66} 
Flow 249: {5 8} {8 6} {6 68} 
Flow 361: {6 8} {8 56} {56 57} {57 119} 
Flow 385: {7 8} {8 44} {44 20} {20 82} 
Flow 501: {9 34} {34 14} {14 76} 
Flow 577: {10 34} {34 29} {29 91} 
Flow 641: {34 32} {32 94} 
Flow 659: {11 8} {8 52} {52 50} {50 112} 
Flow 714: {44 106} 
Flow 717: {12 8} {8 47} {47 109} 
Flow 741: {13 34} {34 9} {9 71} 
Flow 798: {8 5} {5 67} 
Flow 804: {14 34} {34 8} {8 11} {11 73} 
Flow 883: {15 42} {42 30} {30 92} 
Flow 945: {16 42} {42 31} {31 93} 
Flow 1003: {17 8} {8 28} {28 90} 
Flow 1049: {18 8} {8 12} {12 74} 
Flow 1140: {19 44} {44 43} {43 105} 
Flow 1207: {20 44} {44 49} {49 111} 
Flow 1300: {21 43} {43 44} {44 19} {19 81} 
Flow 1303: {22 21} {21 23} {23 85} 
Flow 1364: {23 21} {21 22} {22 84} 
Flow 1427: {24 8} {8 25} {25 87} 
Flow 1437: {36 35} {35 97} 
Flow 1496: {25 8} {8 33} 
Flow 1508: {52 45} {45 107} 
Flow 1565: {26 8} {8 42} {42 41} {41 103} 
Flow 1601: {27 42} {42 15} {15 77} 
Flow 1741: {29 34} {34 96} 
Flow 1796: {30 42} {42 27} {27 89} 
Flow 1854: {31 42} {42 8} {8 24} {24 86} 
Flow 1904: {32 34} {34 13} {13 75} 
Flow 1955: {33 56} {56 4} {4 3} {3 65} 
Flow 1969: {33 8} {8 17} {17 79} 
Flow 2005: {4 54} {54 116} 
Flow 2084: {35 36} {36 8} {8 34} {34 10} {10 72} 
Flow 2234: {37 28} {28 39} {39 101} 
Flow 2273: {42 16} {16 78} 
Flow 2294: {38 28} {28 37} {37 99} 
Flow 2356: {39 28} {28 38} {38 100} 
Flow 2415: {40 28} {28 8} {8 36} {36 98} 
Flow 2481: {41 42} {42 104} 
Flow 2735: {45 52} {52 114} 
Flow 2792: {46 8} {8 48} {48 110} 
Flow 2832: {47 8} {8 26} {26 88} 
Flow 2875: {48 8} {8 70} 
Flow 2946: {49 44} {44 8} {8 18} {18 80} 
Flow 3039: {50 52} {52 51} {51 113} 
Flow 3047: {56 59} {59 121} 
Flow 3096: {51 52} {52 8} {8 46} {46 108} 
Flow 3179: {53 56} {56 8} {8 7} {7 69} 
Flow 3235: {54 4} {4 56} {56 2} {2 64} 
Flow 3347: {55 56} {56 53} {53 115} 
Flow 3472: {57 56} {56 118} 
Flow 3536: {58 56} {56 60} {60 122} 
Flow 3593: {59 56} {56 55} {55 117} 
Flow 3600: {60 56} {56 1} {1 63} 
Flow 3721: {61 56} {56 62} {62 124} 
Flow 3779: {62 56} {56 58} {58 120} 
Time taken running everything: 634 seconds
