networks/zoo_124_3782/zoo_124_3782.sol
<?xml version = "1.0" encoding="UTF-8" standalone="yes"?>
<CPLEXSolution version="1.2">
 <header
   problemName="networks/zoo_124_3782/zoo_124_3782.lp"
   solutionName="incumbent"
   solutionIndex="-1"
   objectiveValue="63"
   solutionTypeValue="3"
   solutionTypeString="primal"
   solutionStatusValue="101"
   solutionStatusString="integer optimal solution"
   solutionMethodString="mip"
   primalFeasible="1"
   dualFeasible="1"
   MIPNodes="1891"
   MIPIterations="251792"
   writeLevel="3"/>
 <quality
   epInt="1.0000000000000001e-05"
   epRHS="9.9999999999999995e-07"
   maxIntInfeas="9.0002997454541313e-09"
   maxPrimalInfeas="3.5001497899866945e-08"
   maxX="4"
   maxSlack="10"/>
 <variables>
  <variable name="Y(2,3)" index="126" value="1"/>
  <variable name="Y(21,22)" index="2501" value="1"/>
  <variable name="Y(22,23)" index="2626" value="1"/>
  <variable name="Y(61,62)" index="7501" value="0.99999999699992503"/>
  <variable name="Y(85,25)" index="10440" value="1"/>
  <variable name="Y(125,4)" index="15379" value="1"/>
  <variable name="Y(243,61)" index="30068" value="-9.9999997171806854e-10"/>
  <variable name="Y(290,47)" index="35882" value="1"/>
  <variable name="Y(350,46)" index="43321" value="1"/>
  <variable name="Y(401,36)" index="49635" value="1"/>
  <variable name="Y(413,48)" index="51135" value="1"/>
  <variable name="Y(500,13)" index="61888" value="1"/>
  <variable name="Y(582,34)" index="72077" value="1"/>
  <variable name="Y(646,37)" index="80016" value="1"/>
  <variable name="Y(680,9)" index="84204" value="1"/>
  <variable name="Y(742,10)" index="91893" value="1"/>
  <variable name="Y(821,29)" index="101708" value="1"/>
  <variable name="Y(884,31)" index="109522" value="1"/>
  <variable name="Y(955,41)" index="118336" value="1"/>
  <variable name="Y(984,8)" index="121899" value="1"/>
  <variable name="Y(1053,16)" index="130463" value="1"/>
  <variable name="Y(1056,20)" index="130839" value="1"/>
  <variable name="Y(1140,43)" index="141278" value="1"/>
  <variable name="Y(1178,19)" index="145966" value="1"/>
  <variable name="Y(1324,44)" index="164095" value="1"/>
  <variable name="Y(1363,21)" index="168908" value="1"/>
  <variable name="Y(1409,6)" index="174597" value="1"/>
  <variable name="Y(1435,8)" index="177823" value="1"/>
  <variable name="Y(1476,12)" index="182911" value="1"/>
  <variable name="Y(1543,18)" index="191225" value="1"/>
  <variable name="Y(1627,42)" index="201665" value="1"/>
  <variable name="Y(1739,32)" index="215543" value="1"/>
  <variable name="Y(1758,51)" index="217918" value="1"/>
  <variable name="Y(1796,27)" index="222606" value="1"/>
  <variable name="Y(1860,30)" index="230545" value="1"/>
  <variable name="Y(1864,35)" index="231046" value="1"/>
  <variable name="Y(1905,14)" index="236109" value="1"/>
  <variable name="Y(1954,2)" index="242173" value="1"/>
  <variable name="Y(1963,11)" index="243298" value="1"/>
  <variable name="Y(2100,26)" index="260301" value="1"/>
  <variable name="Y(2220,24)" index="275179" value="1"/>
  <variable name="Y(2296,40)" index="284619" value="1"/>
  <variable name="Y(2301,45)" index="285244" value="1"/>
  <variable name="Y(2356,38)" index="292057" value="1"/>
  <variable name="Y(2407,28)" index="298371" value="1"/>
  <variable name="Y(2418,39)" index="299746" value="1"/>
  <variable name="Y(2455,15)" index="304310" value="1"/>
  <variable name="Y(2733,50)" index="338817" value="1"/>
  <variable name="Y(2762,17)" index="342380" value="1"/>
  <variable name="Y(2864,59)" index="355070" value="1"/>
  <variable name="Y(2872,5)" index="356008" value="1"/>
  <variable name="Y(2935,7)" index="363822" value="1"/>
  <variable name="Y(3040,52)" index="376887" value="1"/>
  <variable name="Y(3099,49)" index="384200" value="1"/>
  <variable name="Y(3173,1)" index="393328" value="1"/>
  <variable name="Y(3232,61)" index="400704" value="9.9999997171806854e-10"/>
  <variable name="Y(3293,61)" index="408268" value="1"/>
  <variable name="Y(3294,62)" index="408393" value="4.0000998868694456e-09"/>
  <variable name="Y(3353,60)" index="415707" value="1"/>
  <variable name="Y(3473,58)" index="430585" value="1"/>
  <variable name="Y(3532,55)" index="437898" value="1"/>
  <variable name="Y(3538,62)" index="438649" value="-1.0000249717173614e-09"/>
  <variable name="Y(3591,53)" index="445212" value="1"/>
  <variable name="Y(3656,57)" index="453276" value="1"/>
  <variable name="Y(3716,56)" index="460715" value="1"/>
  <variable name="Y(3754,33)" index="465404" value="1"/>
  <variable name="Y(3775,54)" index="468029" value="1"/>
  <variable name="X(1,56,61)" index="469028" value="1"/>
  <variable name="X(1,63,3173)" index="475922" value="1"/>
  <variable name="X(2,56,85)" index="476616" value="1"/>
  <variable name="X(2,64,1954)" index="482267" value="1"/>
  <variable name="X(3,4,125)" index="484220" value="1"/>
  <variable name="X(3,65,2)" index="487879" value="1"/>
  <variable name="X(4,3,2)" index="491661" value="1"/>
  <variable name="X(4,54,3775)" index="499216" value="1"/>
  <variable name="X(4,56,243)" index="499466" value="-2.9999999151542056e-09"/>
  <variable name="X(4,56,3293)" index="502516" value="1"/>
  <variable name="X(4,56,3294)" index="502517" value="2.9999999151542056e-09"/>
  <variable name="X(4,66,125)" index="503130" value="1"/>
  <variable name="X(5,8,290)" index="507077" value="1"/>
  <variable name="X(5,67,2872)" index="513441" value="1"/>
  <variable name="X(6,8,350)" index="514701" value="1"/>
  <variable name="X(6,68,1409)" index="519542" value="1"/>
  <variable name="X(7,8,413)" index="522328" value="1"/>
  <variable name="X(7,69,2935)" index="528632" value="1"/>
  <variable name="X(8,5,2872)" index="532351" value="1"/>
  <variable name="X(8,6,1409)" index="534670" value="1"/>
  <variable name="X(8,7,2935)" index="539978" value="1"/>
  <variable name="X(8,11,1963)" index="542788" value="1"/>
  <variable name="X(8,12,1476)" index="546083" value="1"/>
  <variable name="X(8,17,2762)" index="551151" value="1"/>
  <variable name="X(8,18,1543)" index="553714" value="1"/>
  <variable name="X(8,24,2220)" index="558173" value="1"/>
  <variable name="X(8,25,85)" index="559820" value="1"/>
  <variable name="X(8,26,2100)" index="565617" value="1"/>
  <variable name="X(8,28,646)" index="567945" value="1"/>
  <variable name="X(8,33,1435)" index="572516" value="1"/>
  <variable name="X(8,34,680)" index="575543" value="1"/>
  <variable name="X(8,36,1864)" index="580509" value="1"/>
  <variable name="X(8,42,1053)" index="583480" value="1"/>
  <variable name="X(8,44,3099)" index="589308" value="1"/>
  <variable name="X(8,46,350)" index="590341" value="1"/>
  <variable name="X(8,47,290)" index="594063" value="1"/>
  <variable name="X(8,48,413)" index="597968" value="1"/>
  <variable name="X(8,52,1758)" index="603095" value="1"/>
  <variable name="X(8,56,2864)" index="607983" value="1"/>
  <variable name="X(8,70,984)" index="609885" value="1"/>
  <variable name="X(9,34,500)" index="613183" value="1"/>
  <variable name="X(9,71,680)" index="617145" value="1"/>
  <variable name="X(10,34,582)" index="620829" value="1"/>
  <variable name="X(10,72,742)" index="624771" value="1"/>
  <variable name="X(11,8,646)" index="628457" value="1"/>
  <variable name="X(11,73,1963)" index="633556" value="1"/>
  <variable name="X(12,8,680)" index="636055" value="1"/>
  <variable name="X(12,74,1476)" index="640633" value="1"/>
  <variable name="X(13,34,742)" index="643681" value="1"/>
  <variable name="X(13,75,500)" index="647221" value="1"/>
  <variable name="X(14,34,821)" index="651324" value="1"/>
  <variable name="X(14,76,1905)" index="656190" value="1"/>
  <variable name="X(15,42,884)" index="658951" value="1"/>
  <variable name="X(15,77,2455)" index="664304" value="1"/>
  <variable name="X(16,42,955)" index="666586" value="1"/>
  <variable name="X(16,78,1053)" index="670466" value="1"/>
  <variable name="X(17,8,984)" index="674179" value="1"/>
  <variable name="X(17,79,2762)" index="679739" value="1"/>
  <variable name="X(18,8,1053)" index="681812" value="1"/>
  <variable name="X(18,80,1543)" index="686084" value="1"/>
  <variable name="X(19,44,1140)" index="689463" value="1"/>
  <variable name="X(19,81,1178)" index="693283" value="1"/>
  <variable name="X(20,44,1178)" index="697065" value="1"/>
  <variable name="X(20,82,1056)" index="700725" value="1"/>
  <variable name="X(21,22,21)" index="703472" value="1"/>
  <variable name="X(21,23,22)" index="707255" value="1"/>
  <variable name="X(21,43,1324)" index="712339" value="1"/>
  <variable name="X(21,83,1363)" index="716160" value="1"/>
  <variable name="X(22,21,1324)" index="719903" value="1"/>
  <variable name="X(22,84,21)" index="722382" value="1"/>
  <variable name="X(23,21,1363)" index="727506" value="1"/>
  <variable name="X(23,85,22)" index="729947" value="1"/>
  <variable name="X(24,8,1409)" index="735116" value="1"/>
  <variable name="X(24,86,2220)" index="739709" value="1"/>
  <variable name="X(25,8,1476)" index="742747" value="1"/>
  <variable name="X(25,87,85)" index="745138" value="1"/>
  <variable name="X(26,8,1543)" index="750378" value="1"/>
  <variable name="X(26,88,2100)" index="754717" value="1"/>
  <variable name="X(27,42,1627)" index="758026" value="1"/>
  <variable name="X(27,89,1796)" index="761977" value="1"/>
  <variable name="X(28,8,2220)" index="766183" value="1"/>
  <variable name="X(28,37,646)" index="768391" value="1"/>
  <variable name="X(28,38,2356)" index="773883" value="1"/>
  <variable name="X(28,39,2418)" index="777727" value="1"/>
  <variable name="X(28,40,2296)" index="781387" value="1"/>
  <variable name="X(28,90,2407)" index="785280" value="1"/>
  <variable name="X(29,34,1739)" index="788394" value="1"/>
  <variable name="X(29,91,821)" index="791258" value="1"/>
  <variable name="X(30,42,1796)" index="796015" value="1"/>
  <variable name="X(30,92,1860)" index="799861" value="1"/>
  <variable name="X(31,42,1860)" index="803643" value="1"/>
  <variable name="X(31,93,884)" index="806449" value="1"/>
  <variable name="X(32,34,1905)" index="811252" value="1"/>
  <variable name="X(32,94,1739)" index="814868" value="1"/>
  <variable name="X(33,8,1963)" index="818874" value="1"/>
  <variable name="X(33,56,1954)" index="822647" value="0.99999999799999983"/>
  <variable name="X(33,56,2011)" index="822704" value="2.000000165480742e-09"/>
  <variable name="X(33,95,3754)" index="828229" value="1"/>
  <variable name="X(34,8,1758)" index="830015" value="1"/>
  <variable name="X(34,9,680)" index="832719" value="1"/>
  <variable name="X(34,10,742)" index="836563" value="1"/>
  <variable name="X(34,13,500)" index="840103" value="1"/>
  <variable name="X(34,14,1905)" index="845290" value="1"/>
  <variable name="X(34,29,821)" index="847988" value="1"/>
  <variable name="X(34,32,1739)" index="852688" value="1"/>
  <variable name="X(34,96,582)" index="855313" value="1"/>
  <variable name="X(35,36,2100)" index="860613" value="1"/>
  <variable name="X(35,97,1864)" index="864159" value="1"/>
  <variable name="X(36,8,2100)" index="868177" value="1"/>
  <variable name="X(36,35,1864)" index="871723" value="1"/>
  <variable name="X(36,98,401)" index="874042" value="1"/>
  <variable name="X(37,28,2220)" index="879643" value="1"/>
  <variable name="X(37,99,646)" index="881851" value="1"/>
  <variable name="X(38,28,2296)" index="887283" value="1"/>
  <variable name="X(38,100,2356)" index="891125" value="1"/>
  <variable name="X(39,28,2356)" index="894907" value="1"/>
  <variable name="X(39,101,2418)" index="898751" value="1"/>
  <variable name="X(40,28,2418)" index="902533" value="1"/>
  <variable name="X(40,102,2296)" index="906193" value="1"/>
  <variable name="X(41,42,2455)" index="910134" value="1"/>
  <variable name="X(41,103,955)" index="912416" value="1"/>
  <variable name="X(42,8,1864)" index="917107" value="1"/>
  <variable name="X(42,15,2455)" index="921480" value="1"/>
  <variable name="X(42,16,1053)" index="923860" value="1"/>
  <variable name="X(42,27,1796)" index="928385" value="1"/>
  <variable name="X(42,30,1860)" index="932231" value="1"/>
  <variable name="X(42,31,884)" index="935037" value="1"/>
  <variable name="X(42,41,955)" index="938890" value="1"/>
  <variable name="X(42,104,1627)" index="943344" value="1"/>
  <variable name="X(43,21,22)" index="945521" value="1"/>
  <variable name="X(43,44,1324)" index="950605" value="1"/>
  <variable name="X(43,105,1140)" index="954203" value="1"/>
  <variable name="X(44,8,2935)" index="959780" value="1"/>
  <variable name="X(44,19,1178)" index="961805" value="1"/>
  <variable name="X(44,20,1056)" index="965465" value="1"/>
  <variable name="X(44,43,1140)" index="969331" value="1"/>
  <variable name="X(44,49,3099)" index="975072" value="1"/>
  <variable name="X(44,106,1324)" index="977079" value="1"/>
  <variable name="X(45,52,2733)" index="982270" value="1"/>
  <variable name="X(45,107,2301)" index="985620" value="1"/>
  <variable name="X(46,8,2762)" index="989863" value="1"/>
  <variable name="X(46,108,350)" index="991233" value="1"/>
  <variable name="X(47,8,2864)" index="997529" value="1"/>
  <variable name="X(47,109,290)" index="998737" value="1"/>
  <variable name="X(48,8,2872)" index="1005101" value="1"/>
  <variable name="X(48,110,413)" index="1006424" value="1"/>
  <variable name="X(49,44,2935)" index="1012728" value="1"/>
  <variable name="X(49,111,3099)" index="1016674" value="1"/>
  <variable name="X(50,52,3040)" index="1020397" value="1"/>
  <variable name="X(50,112,2733)" index="1023872" value="1"/>
  <variable name="X(51,52,3099)" index="1028020" value="1"/>
  <variable name="X(51,113,1758)" index="1030461" value="1"/>
  <variable name="X(52,8,3099)" index="1035584" value="1"/>
  <variable name="X(52,45,2301)" index="1038568" value="1"/>
  <variable name="X(52,50,2733)" index="1042782" value="1"/>
  <variable name="X(52,51,1758)" index="1045589" value="1"/>
  <variable name="X(52,114,3040)" index="1050653" value="1"/>
  <variable name="X(53,56,3173)" index="1054568" value="0.99999999900000003"/>
  <variable name="X(53,56,3232)" index="1054627" value="9.9999997171806854e-10"/>
  <variable name="X(53,115,3591)" index="1058768" value="1"/>
  <variable name="X(54,4,3257)" index="1062216" value="-7.0002995799733893e-09"/>
  <variable name="X(54,4,3293)" index="1062252" value="0.99999999799999983"/>
  <variable name="X(54,4,3294)" index="1062253" value="9.0002997454541313e-09"/>
  <variable name="X(54,116,3775)" index="1066516" value="1"/>
  <variable name="X(55,56,3353)" index="1069876" value="1"/>
  <variable name="X(55,117,3532)" index="1073837" value="1"/>
  <variable name="X(56,1,3173)" index="1077260" value="1"/>
  <variable name="X(56,2,1954)" index="1079823" value="1"/>
  <variable name="X(56,4,3775)" index="1085426" value="1"/>
  <variable name="X(56,8,85)" index="1085518" value="1"/>
  <variable name="X(56,33,3754)" index="1092969" value="1"/>
  <variable name="X(56,53,3591)" index="1096588" value="1"/>
  <variable name="X(56,55,3532)" index="1100311" value="1"/>
  <variable name="X(56,57,3656)" index="1104217" value="1"/>
  <variable name="X(56,58,3473)" index="1107816" value="1"/>
  <variable name="X(56,59,2864)" index="1110989" value="1"/>
  <variable name="X(56,60,3353)" index="1115260" value="1"/>
  <variable name="X(56,61,243)" index="1115932" value="-9.9999997171806854e-10"/>
  <variable name="X(56,61,3232)" index="1118921" value="9.9999997171806854e-10"/>
  <variable name="X(56,61,3293)" index="1118982" value="1"/>
  <variable name="X(56,62,61)" index="1119532" value="1"/>
  <variable name="X(56,62,3294)" index="1122765" value="4.0000998868694456e-09"/>
  <variable name="X(56,62,3538)" index="1123009" value="-4.0000998868694456e-09"/>
  <variable name="X(56,118,3716)" index="1126969" value="1"/>
  <variable name="X(57,56,3473)" index="1130508" value="1"/>
  <variable name="X(57,119,3656)" index="1134473" value="1"/>
  <variable name="X(58,56,3532)" index="1138131" value="1"/>
  <variable name="X(58,120,3473)" index="1141854" value="1"/>
  <variable name="X(59,56,3591)" index="1145754" value="1"/>
  <variable name="X(59,121,2864)" index="1148809" value="1"/>
  <variable name="X(60,56,3656)" index="1153383" value="1"/>
  <variable name="X(60,122,3353)" index="1156862" value="1"/>
  <variable name="X(61,56,3716)" index="1161007" value="1"/>
  <variable name="X(61,123,243)" index="1161316" value="-9.9999997171806854e-10"/>
  <variable name="X(61,123,3232)" index="1164305" value="9.9999997171806854e-10"/>
  <variable name="X(61,123,3293)" index="1164366" value="1"/>
  <variable name="X(62,56,3775)" index="1168630" value="1"/>
  <variable name="X(62,124,61)" index="1168698" value="0.99999999699992503"/>
  <variable name="X(62,124,3294)" index="1171931" value="4.0000998868694456e-09"/>
  <variable name="X(62,124,3538)" index="1172175" value="-1.0000249717173614e-09"/>
  <variable name="C(2,3)" index="1172426" value="1"/>
  <variable name="C(21,22)" index="1172513" value="1"/>
  <variable name="C(22,21)" index="1172519" value="1"/>
  <variable name="C(22,23)" index="1172520" value="2"/>
  <variable name="C(61,56)" index="1172680" value="1"/>
  <variable name="C(61,62)" index="1172681" value="2"/>
  <variable name="C(85,56)" index="1172788" value="0.99999999799999983"/>
  <variable name="C(85,8)" index="1172789" value="1.9999999979999998"/>
  <variable name="C(85,25)" index="1172790" value="2.9999999969999998"/>
  <variable name="C(125,4)" index="1172953" value="1"/>
  <variable name="C(243,56)" index="1173515" value="-2.9999999151542056e-09"/>
  <variable name="C(243,61)" index="1173516" value="-3.9999998868722741e-09"/>
  <variable name="C(290,8)" index="1173689" value="1"/>
  <variable name="C(290,47)" index="1173690" value="2"/>
  <variable name="C(350,8)" index="1173915" value="0.99999999900000003"/>
  <variable name="C(350,46)" index="1173916" value="1.9999999989999999"/>
  <variable name="C(413,8)" index="1174150" value="1"/>
  <variable name="C(413,48)" index="1174151" value="2"/>
  <variable name="C(500,34)" index="1174424" value="1"/>
  <variable name="C(500,13)" index="1174425" value="2"/>
  <variable name="C(582,34)" index="1174796" value="1"/>
  <variable name="C(646,8)" index="1175062" value="1"/>
  <variable name="C(646,28)" index="1175063" value="2"/>
  <variable name="C(646,37)" index="1175064" value="3"/>
  <variable name="C(680,8)" index="1175188" value="1"/>
  <variable name="C(680,34)" index="1175189" value="2"/>
  <variable name="C(680,9)" index="1175190" value="3"/>
  <variable name="C(742,34)" index="1175428" value="1"/>
  <variable name="C(742,10)" index="1175429" value="2"/>
  <variable name="C(821,34)" index="1175788" value="1"/>
  <variable name="C(821,29)" index="1175789" value="2"/>
  <variable name="C(884,15)" index="1176074" value="-2.000000165480742e-09"/>
  <variable name="C(884,42)" index="1176075" value="0.99999999799999983"/>
  <variable name="C(884,31)" index="1176076" value="1.9999999979999998"/>
  <variable name="C(955,42)" index="1176397" value="1"/>
  <variable name="C(955,41)" index="1176398" value="2"/>
  <variable name="C(984,8)" index="1176523" value="1"/>
  <variable name="C(1053,8)" index="1176780" value="1"/>
  <variable name="C(1053,42)" index="1176781" value="2"/>
  <variable name="C(1053,16)" index="1176782" value="3"/>
  <variable name="C(1056,20)" index="1176793" value="1"/>
  <variable name="C(1140,44)" index="1177141" value="1"/>
  <variable name="C(1140,43)" index="1177142" value="2"/>
  <variable name="C(1178,44)" index="1177312" value="1"/>
  <variable name="C(1178,19)" index="1177313" value="2"/>
  <variable name="C(1324,21)" index="1178091" value="1"/>
  <variable name="C(1324,43)" index="1178092" value="2"/>
  <variable name="C(1324,44)" index="1178093" value="3"/>
  <variable name="C(1363,21)" index="1178343" value="1"/>
  <variable name="C(1409,8)" index="1178620" value="1"/>
  <variable name="C(1409,6)" index="1178621" value="2"/>
  <variable name="C(1476,8)" index="1178868" value="1"/>
  <variable name="C(1476,12)" index="1178869" value="2"/>
  <variable name="C(1543,8)" index="1179119" value="1"/>
  <variable name="C(1543,18)" index="1179120" value="2"/>
  <variable name="C(1627,42)" index="1179467" value="1"/>
  <variable name="C(1739,34)" index="1179920" value="1"/>
  <variable name="C(1739,32)" index="1179921" value="2"/>
  <variable name="C(1758,8)" index="1180004" value="1"/>
  <variable name="C(1758,52)" index="1180005" value="2"/>
  <variable name="C(1758,51)" index="1180006" value="3"/>
  <variable name="C(1796,42)" index="1180182" value="1"/>
  <variable name="C(1796,27)" index="1180183" value="2"/>
  <variable name="C(1860,42)" index="1180471" value="1"/>
  <variable name="C(1860,30)" index="1180472" value="2"/>
  <variable name="C(1864,8)" index="1180488" value="1"/>
  <variable name="C(1864,36)" index="1180489" value="2"/>
  <variable name="C(1864,35)" index="1180490" value="3"/>
  <variable name="C(1905,34)" index="1180669" value="1"/>
  <variable name="C(1905,14)" index="1180670" value="2"/>
  <variable name="C(1954,56)" index="1180896" value="0.99999999799999983"/>
  <variable name="C(1954,2)" index="1180897" value="1.9999999979999998"/>
  <variable name="C(1963,8)" index="1180925" value="1"/>
  <variable name="C(1963,11)" index="1180926" value="2"/>
  <variable name="C(2100,36)" index="1181445" value="1"/>
  <variable name="C(2100,8)" index="1181446" value="2"/>
  <variable name="C(2100,26)" index="1181447" value="3"/>
  <variable name="C(2220,28)" index="1181951" value="1"/>
  <variable name="C(2220,8)" index="1181952" value="2"/>
  <variable name="C(2220,24)" index="1181953" value="3"/>
  <variable name="C(2296,28)" index="1182294" value="1"/>
  <variable name="C(2296,40)" index="1182295" value="2"/>
  <variable name="C(2301,45)" index="1182318" value="1"/>
  <variable name="C(2356,28)" index="1182572" value="1"/>
  <variable name="C(2356,38)" index="1182573" value="2"/>
  <variable name="C(2418,28)" index="1182856" value="1"/>
  <variable name="C(2418,39)" index="1182857" value="2"/>
  <variable name="C(2455,42)" index="1183027" value="1"/>
  <variable name="C(2455,15)" index="1183028" value="2"/>
  <variable name="C(2733,52)" index="1184166" value="1"/>
  <variable name="C(2733,50)" index="1184167" value="2"/>
  <variable name="C(2762,8)" index="1184282" value="1"/>
  <variable name="C(2762,17)" index="1184283" value="2"/>
  <variable name="C(2864,8)" index="1184666" value="1"/>
  <variable name="C(2864,56)" index="1184667" value="2"/>
  <variable name="C(2864,59)" index="1184668" value="3"/>
  <variable name="C(2872,48)" index="1184698" value="-9.9999997171806854e-10"/>
  <variable name="C(2872,8)" index="1184699" value="0.99999999900000003"/>
  <variable name="C(2872,5)" index="1184700" value="1.9999999989999999"/>
  <variable name="C(2935,44)" index="1184940" value="1"/>
  <variable name="C(2935,8)" index="1184941" value="2"/>
  <variable name="C(2935,7)" index="1184942" value="3"/>
  <variable name="C(3040,52)" index="1185417" value="1"/>
  <variable name="C(3099,52)" index="1185692" value="1"/>
  <variable name="C(3099,8)" index="1185693" value="2"/>
  <variable name="C(3099,44)" index="1185694" value="3"/>
  <variable name="C(3099,49)" index="1185695" value="4"/>
  <variable name="C(3173,56)" index="1185975" value="0.99999999900000003"/>
  <variable name="C(3173,1)" index="1185976" value="1.9999999989999999"/>
  <variable name="C(3232,56)" index="1186231" value="9.9999997171806854e-10"/>
  <variable name="C(3232,61)" index="1186232" value="1.9999999434361371e-09"/>
  <variable name="C(3257,4)" index="1186360" value="-7.0002995799733893e-09"/>
  <variable name="C(3293,4)" index="1186547" value="0.99999999799999983"/>
  <variable name="C(3293,56)" index="1186548" value="1.9999999979999998"/>
  <variable name="C(3293,61)" index="1186549" value="2.9999999979999998"/>
  <variable name="C(3294,4)" index="1186551" value="9.0002997454541313e-09"/>
  <variable name="C(3294,56)" index="1186552" value="1.2000299660608337e-08"/>
  <variable name="C(3294,62)" index="1186553" value="1.6000399547477783e-08"/>
  <variable name="C(3353,56)" index="1186808" value="1"/>
  <variable name="C(3353,60)" index="1186809" value="2"/>
  <variable name="C(3473,56)" index="1187266" value="1"/>
  <variable name="C(3473,58)" index="1187267" value="2"/>
  <variable name="C(3532,56)" index="1187523" value="1"/>
  <variable name="C(3532,55)" index="1187524" value="2"/>
  <variable name="C(3538,62)" index="1187541" value="-4.0000998868694456e-09"/>
  <variable name="C(3591,56)" index="1187778" value="1"/>
  <variable name="C(3591,53)" index="1187779" value="2"/>
  <variable name="C(3656,56)" index="1188052" value="1"/>
  <variable name="C(3656,57)" index="1188053" value="2"/>
  <variable name="C(3716,56)" index="1188312" value="1"/>
  <variable name="C(3754,33)" index="1188475" value="1"/>
  <variable name="C(3775,56)" index="1188567" value="1"/>
  <variable name="C(3775,4)" index="1188568" value="2"/>
  <variable name="C(3775,54)" index="1188569" value="3"/>
 </variables>
</CPLEXSolution>
